c This file is generated by _findSolu
c Generated on Mon Nov  9 17:05:04 2015
p cnf 258 670
-1 -3 -21 0
1 21 0
3 21 0
-3 -4 -18 0
3 18 0
4 18 0
-2 -37 -20 0
2 20 0
37 20 0
-5 -37 -19 0
5 19 0
37 19 0
-24 -63 -16 0
24 16 0
63 16 0
-76 -76 -17 0
76 17 0
76 17 0
6 22 0
-6 -22 0
7 23 0
-7 -23 0
-1 -22 25 0
1 -25 0
22 -25 0
-21 -6 26 0
21 -26 0
6 -26 0
-4 -22 27 0
4 -27 0
22 -27 0
-21 -6 28 0
21 -28 0
6 -28 0
-25 -23 29 0
25 -29 0
23 -29 0
-26 -7 30 0
26 -30 0
7 -30 0
-27 -23 31 0
27 -31 0
23 -31 0
-28 -7 32 0
28 -32 0
7 -32 0
29 30 -33 0
-29 33 0
-30 33 0
31 33 -34 0
-31 34 0
-33 34 0
34 32 -24 0
-34 24 0
-32 24 0
8 35 0
-8 -35 0
9 36 0
-9 -36 0
-1 -35 38 0
1 -38 0
35 -38 0
-18 -8 39 0
18 -39 0
8 -39 0
-4 -35 40 0
4 -40 0
35 -40 0
-18 -8 41 0
18 -41 0
8 -41 0
-38 -36 42 0
38 -42 0
36 -42 0
-39 -9 43 0
39 -43 0
9 -43 0
-40 -36 44 0
40 -44 0
36 -44 0
-41 -9 45 0
41 -45 0
9 -45 0
42 43 -46 0
-42 46 0
-43 46 0
44 46 -47 0
-44 47 0
-46 47 0
47 45 -37 0
-47 37 0
-45 37 0
10 48 0
-10 -48 0
11 49 0
-11 -49 0
-1 -48 51 0
1 -51 0
48 -51 0
-18 -10 52 0
18 -52 0
10 -52 0
-4 -48 53 0
4 -53 0
48 -53 0
-18 -10 54 0
18 -54 0
10 -54 0
-51 -49 55 0
51 -55 0
49 -55 0
-52 -11 56 0
52 -56 0
11 -56 0
-53 -49 57 0
53 -57 0
49 -57 0
-54 -11 58 0
54 -58 0
11 -58 0
55 56 -59 0
-55 59 0
-56 59 0
57 59 -60 0
-57 60 0
-59 60 0
60 58 -50 0
-60 50 0
-58 50 0
12 61 0
-12 -61 0
13 62 0
-13 -62 0
-1 -61 64 0
1 -64 0
61 -64 0
-20 -12 65 0
20 -65 0
12 -65 0
-4 -61 66 0
4 -66 0
61 -66 0
-20 -12 67 0
20 -67 0
12 -67 0
-64 -62 68 0
64 -68 0
62 -68 0
-65 -13 69 0
65 -69 0
13 -69 0
-66 -62 70 0
66 -70 0
62 -70 0
-67 -13 71 0
67 -71 0
13 -71 0
68 69 -72 0
-68 72 0
-69 72 0
70 72 -73 0
-70 73 0
-72 73 0
73 71 -63 0
-73 63 0
-71 63 0
14 74 0
-14 -74 0
15 75 0
-15 -75 0
-1 -74 77 0
1 -77 0
74 -77 0
-19 -14 78 0
19 -78 0
14 -78 0
-4 -74 79 0
4 -79 0
74 -79 0
-19 -14 80 0
19 -80 0
14 -80 0
-77 -75 81 0
77 -81 0
75 -81 0
-78 -15 82 0
78 -82 0
15 -82 0
-79 -75 83 0
79 -83 0
75 -83 0
-80 -15 84 0
80 -84 0
15 -84 0
81 82 -85 0
-81 85 0
-82 85 0
83 85 -86 0
-83 86 0
-85 86 0
86 84 -76 0
-86 76 0
-84 76 0
-1 0
-2 0
-3 0
4 0
-5 0
-16 0
-17 0
c New duplicated circuit:
-87 -89 -107 0
87 107 0
89 107 0
-89 -90 -104 0
89 104 0
90 104 0
-88 -123 -106 0
88 106 0
123 106 0
-91 -123 -105 0
91 105 0
123 105 0
-110 -149 -102 0
110 102 0
149 102 0
-162 -162 -103 0
162 103 0
162 103 0
92 108 0
-92 -108 0
93 109 0
-93 -109 0
-87 -108 111 0
87 -111 0
108 -111 0
-107 -92 112 0
107 -112 0
92 -112 0
-90 -108 113 0
90 -113 0
108 -113 0
-107 -92 114 0
107 -114 0
92 -114 0
-111 -109 115 0
111 -115 0
109 -115 0
-112 -93 116 0
112 -116 0
93 -116 0
-113 -109 117 0
113 -117 0
109 -117 0
-114 -93 118 0
114 -118 0
93 -118 0
115 116 -119 0
-115 119 0
-116 119 0
117 119 -120 0
-117 120 0
-119 120 0
120 118 -110 0
-120 110 0
-118 110 0
94 121 0
-94 -121 0
95 122 0
-95 -122 0
-87 -121 124 0
87 -124 0
121 -124 0
-104 -94 125 0
104 -125 0
94 -125 0
-90 -121 126 0
90 -126 0
121 -126 0
-104 -94 127 0
104 -127 0
94 -127 0
-124 -122 128 0
124 -128 0
122 -128 0
-125 -95 129 0
125 -129 0
95 -129 0
-126 -122 130 0
126 -130 0
122 -130 0
-127 -95 131 0
127 -131 0
95 -131 0
128 129 -132 0
-128 132 0
-129 132 0
130 132 -133 0
-130 133 0
-132 133 0
133 131 -123 0
-133 123 0
-131 123 0
96 134 0
-96 -134 0
97 135 0
-97 -135 0
-87 -134 137 0
87 -137 0
134 -137 0
-104 -96 138 0
104 -138 0
96 -138 0
-90 -134 139 0
90 -139 0
134 -139 0
-104 -96 140 0
104 -140 0
96 -140 0
-137 -135 141 0
137 -141 0
135 -141 0
-138 -97 142 0
138 -142 0
97 -142 0
-139 -135 143 0
139 -143 0
135 -143 0
-140 -97 144 0
140 -144 0
97 -144 0
141 142 -145 0
-141 145 0
-142 145 0
143 145 -146 0
-143 146 0
-145 146 0
146 144 -136 0
-146 136 0
-144 136 0
98 147 0
-98 -147 0
99 148 0
-99 -148 0
-87 -147 150 0
87 -150 0
147 -150 0
-106 -98 151 0
106 -151 0
98 -151 0
-90 -147 152 0
90 -152 0
147 -152 0
-106 -98 153 0
106 -153 0
98 -153 0
-150 -148 154 0
150 -154 0
148 -154 0
-151 -99 155 0
151 -155 0
99 -155 0
-152 -148 156 0
152 -156 0
148 -156 0
-153 -99 157 0
153 -157 0
99 -157 0
154 155 -158 0
-154 158 0
-155 158 0
156 158 -159 0
-156 159 0
-158 159 0
159 157 -149 0
-159 149 0
-157 149 0
100 160 0
-100 -160 0
101 161 0
-101 -161 0
-87 -160 163 0
87 -163 0
160 -163 0
-105 -100 164 0
105 -164 0
100 -164 0
-90 -160 165 0
90 -165 0
160 -165 0
-105 -100 166 0
105 -166 0
100 -166 0
-163 -161 167 0
163 -167 0
161 -167 0
-164 -101 168 0
164 -168 0
101 -168 0
-165 -161 169 0
165 -169 0
161 -169 0
-166 -101 170 0
166 -170 0
101 -170 0
167 168 -171 0
-167 171 0
-168 171 0
169 171 -172 0
-169 172 0
-171 172 0
172 170 -162 0
-172 162 0
-170 162 0
6 -92 0
-6 92 0
7 -93 0
-7 93 0
8 -94 0
-8 94 0
9 -95 0
-9 95 0
10 -96 0
-10 96 0
11 -97 0
-11 97 0
12 -98 0
-12 98 0
13 -99 0
-13 99 0
14 -100 0
-14 100 0
15 -101 0
-15 101 0
-87 0
88 0
89 0
-90 0
-91 0
102 0
-103 0
c New duplicated circuit:
-173 -175 -193 0
173 193 0
175 193 0
-175 -176 -190 0
175 190 0
176 190 0
-174 -209 -192 0
174 192 0
209 192 0
-177 -209 -191 0
177 191 0
209 191 0
-196 -235 -188 0
196 188 0
235 188 0
-248 -248 -189 0
248 189 0
248 189 0
178 194 0
-178 -194 0
179 195 0
-179 -195 0
-173 -194 197 0
173 -197 0
194 -197 0
-193 -178 198 0
193 -198 0
178 -198 0
-176 -194 199 0
176 -199 0
194 -199 0
-193 -178 200 0
193 -200 0
178 -200 0
-197 -195 201 0
197 -201 0
195 -201 0
-198 -179 202 0
198 -202 0
179 -202 0
-199 -195 203 0
199 -203 0
195 -203 0
-200 -179 204 0
200 -204 0
179 -204 0
201 202 -205 0
-201 205 0
-202 205 0
203 205 -206 0
-203 206 0
-205 206 0
206 204 -196 0
-206 196 0
-204 196 0
180 207 0
-180 -207 0
181 208 0
-181 -208 0
-173 -207 210 0
173 -210 0
207 -210 0
-190 -180 211 0
190 -211 0
180 -211 0
-176 -207 212 0
176 -212 0
207 -212 0
-190 -180 213 0
190 -213 0
180 -213 0
-210 -208 214 0
210 -214 0
208 -214 0
-211 -181 215 0
211 -215 0
181 -215 0
-212 -208 216 0
212 -216 0
208 -216 0
-213 -181 217 0
213 -217 0
181 -217 0
214 215 -218 0
-214 218 0
-215 218 0
216 218 -219 0
-216 219 0
-218 219 0
219 217 -209 0
-219 209 0
-217 209 0
182 220 0
-182 -220 0
183 221 0
-183 -221 0
-173 -220 223 0
173 -223 0
220 -223 0
-190 -182 224 0
190 -224 0
182 -224 0
-176 -220 225 0
176 -225 0
220 -225 0
-190 -182 226 0
190 -226 0
182 -226 0
-223 -221 227 0
223 -227 0
221 -227 0
-224 -183 228 0
224 -228 0
183 -228 0
-225 -221 229 0
225 -229 0
221 -229 0
-226 -183 230 0
226 -230 0
183 -230 0
227 228 -231 0
-227 231 0
-228 231 0
229 231 -232 0
-229 232 0
-231 232 0
232 230 -222 0
-232 222 0
-230 222 0
184 233 0
-184 -233 0
185 234 0
-185 -234 0
-173 -233 236 0
173 -236 0
233 -236 0
-192 -184 237 0
192 -237 0
184 -237 0
-176 -233 238 0
176 -238 0
233 -238 0
-192 -184 239 0
192 -239 0
184 -239 0
-236 -234 240 0
236 -240 0
234 -240 0
-237 -185 241 0
237 -241 0
185 -241 0
-238 -234 242 0
238 -242 0
234 -242 0
-239 -185 243 0
239 -243 0
185 -243 0
240 241 -244 0
-240 244 0
-241 244 0
242 244 -245 0
-242 245 0
-244 245 0
245 243 -235 0
-245 235 0
-243 235 0
186 246 0
-186 -246 0
187 247 0
-187 -247 0
-173 -246 249 0
173 -249 0
246 -249 0
-191 -186 250 0
191 -250 0
186 -250 0
-176 -246 251 0
176 -251 0
246 -251 0
-191 -186 252 0
191 -252 0
186 -252 0
-249 -247 253 0
249 -253 0
247 -253 0
-250 -187 254 0
250 -254 0
187 -254 0
-251 -247 255 0
251 -255 0
247 -255 0
-252 -187 256 0
252 -256 0
187 -256 0
253 254 -257 0
-253 257 0
-254 257 0
255 257 -258 0
-255 258 0
-257 258 0
258 256 -248 0
-258 248 0
-256 248 0
6 -178 0
-6 178 0
7 -179 0
-7 179 0
8 -180 0
-8 180 0
9 -181 0
-9 181 0
10 -182 0
-10 182 0
11 -183 0
-11 183 0
12 -184 0
-12 184 0
13 -185 0
-13 185 0
14 -186 0
-14 186 0
15 -187 0
-15 187 0
-173 0
-174 0
-175 0
-176 0
177 0
-188 0
189 0
